50
0 1 0.48 0.3
0 2 0.47 0.28
0 3 0.59 0.13
0 4 0.74 0.24
0 5 0.54 0.19
0 6 0.82 0.26
0 7 0.7 0.32
0 8 0.67 0.22
0 9 0.56 0.12
0 10 0.64 0.18
0 11 0.66 0.24
0 12 0.59 0.21
0 13 0.54 0.2
0 14 0.64 0.14
0 15 0.56 0.18
0 16 0.56 0.4
0 17 0.44 0.28
0 18 0.6 0.24
0 19 0.34 0.23
0 20 0.56 0.14
0 21 0.72 0.24
0 22 0.48 0.18
0 23 0.44 0.16
0 24 0.66 0.28
0 25 0.48 0.14
0 26 0.66 0.2
0 27 0.7 0.1
0 28 0.64 0.2
0 29 0.58 0.26
0 30 0.66 0.22
0 31 0.66 0.16
0 32 0.71 0.18
0 33 0.76 0.23
0 34 0.48 0.28
0 35 0.48 0.26
0 36 0.52 0.28
0 37 0.78 0.16
0 38 0.56 0.26
0 39 0.34 0.08
0 40 0.7 0.18
0 41 0.44 0.14
0 42 0.58 0.2
0 43 0.62 0.14
0 44 0.58 0.28
0 45 0.73 0.3
0 46 0.71 0.26
0 47 0.64 0.26
0 48 0.8 0.16
0 49 0.32 0.29
1 2 0.73 0.34
1 3 0.56 0.25
1 4 0.56 0.31
1 5 0.55 0.26
1 6 0.5 0.31
1 7 0.7 0.39
1 8 0.64 0.27
1 9 0.52 0.19
1 10 0.59 0.23
1 11 0.74 0.31
1 12 0.48 0.34
1 13 0.56 0.32
1 14 0.56 0.27
1 15 0.78 0.28
1 16 0.54 0.43
1 17 0.78 0.3
1 18 0.64 0.3
1 19 0.64 0.25
1 20 0.6 0.16
1 21 0.42 0.3
1 22 0.47 0.25
1 23 0.7 0.3
1 24 0.74 0.33
1 25 0.76 0.2
1 26 0.42 0.32
1 27 0.5 0.24
1 28 0.59 0.32
1 29 0.88 0.39
1 30 0.64 0.26
1 31 0.68 0.31
1 32 0.37 0.27
1 33 0.6 0.29
1 34 0.73 0.3
1 35 0.76 0.28
1 36 0.46 0.37
1 37 0.64 0.15
1 38 0.7 0.3
1 39 0.82 0.23
1 40 0.62 0.32
1 41 0.71 0.27
1 42 0.44 0.27
1 43 0.52 0.26
1 44 0.5 0.26
1 45 0.34 0.28
1 46 0.83 0.32
1 47 0.56 0.38
1 48 0.36 0.22
1 49 0.66 0.2
2 3 0.58 0.16
2 4 0.48 0.24
2 5 0.77 0.22
2 6 0.61 0.24
2 7 0.56 0.37
2 8 0.64 0.2
2 9 0.58 0.24
2 10 0.42 0.16
2 11 0.53 0.12
2 12 0.28 0.23
2 13 0.36 0.22
2 14 0.54 0.24
2 15 0.65 0.22
2 16 0.74 0.22
2 17 0.68 0.28
2 18 0.47 0.23
2 19 0.53 0.27
2 20 0.7 0.18
2 21 0.62 0.27
2 22 0.73 0.3
2 23 0.73 0.24
2 24 0.53 0.17
2 25 0.74 0.14
2 26 0.6 0.22
2 27 0.58 0.18
2 28 0.79 0.28
2 29 0.6 0.32
2 30 0.7 0.26
2 31 0.68 0.27
2 32 0.58 0.2
2 33 0.42 0.26
2 34 0.46 0.29
2 35 0.52 0.23
2 36 0.59 0.3
2 37 0.58 0.26
2 38 0.5 0.3
2 39 0.72 0.2
2 40 0.5 0.26
2 41 0.5 0.24
2 42 0.41 0.28
2 43 0.6 0.22
2 44 0.42 0.14
2 45 0.68 0.34
2 46 0.76 0.2
2 47 0.68 0.32
2 48 0.7 0.19
2 49 0.48 0.23
3 4 0.5 0.15
3 5 0.3 0.06
3 6 0.5 0.23
3 7 0.68 0.27
3 8 0.72 0.19
3 9 0.62 0.24
3 10 0.68 0.15
3 11 0.53 0.28
3 12 0.48 0.23
3 13 0.79 0.19
3 14 0.3 0.19
3 15 0.22 0.1
3 16 0.5 0.28
3 17 0.48 0.2
3 18 0.55 0.18
3 19 0.33 0.11
3 20 0.47 0.18
3 21 0.64 0.11
3 22 0.37 0.23
3 23 0.5 0.22
3 24 0.6 0.23
3 25 0.36 0.18
3 26 0.66 0.19
3 27 0.77 0.22
3 28 0.6 0.27
3 29 0.36 0.31
3 30 0.64 0.19
3 31 0.51 0.23
3 32 0.45 0.19
3 33 0.42 0.1
3 34 0.62 0.2
3 35 0.68 0.18
3 36 0.63 0.29
3 37 0.74 0.24
3 38 0.5 0.27
3 39 0.62 0.2
3 40 0.62 0.14
3 41 0.68 0.19
3 42 0.66 0.25
3 43 0.58 0.21
3 44 0.51 0.25
3 45 0.56 0.33
3 46 0.64 0.19
3 47 0.62 0.19
3 48 0.48 0.03
3 49 0.53 0.32
4 5 0.71 0.17
4 6 0.36 0.25
4 7 0.58 0.26
4 8 0.54 0.21
4 9 0.55 0.12
4 10 0.56 0.22
4 11 0.6 0.17
4 12 0.51 0.28
4 13 0.72 0.2
4 14 0.62 0.14
4 15 0.72 0.11
4 16 0.74 0.37
4 17 0.41 0.05
4 18 0.58 0.2
4 19 0.56 0.22
4 20 0.52 0.17
4 21 0.52 0.1
4 22 0.74 0.28
4 23 0.61 0.2
4 24 0.36 0.12
4 25 0.38 0.13
4 26 0.65 0.2
4 27 0.57 0.17
4 28 0.6 0.27
4 29 0.76 0.16
4 30 0.46 0.24
4 31 0.5 0.24
4 32 0.6 0.18
4 33 0.5 0.05
4 34 0.73 0.15
4 35 0.6 0.17
4 36 0.56 0.25
4 37 0.26 0.16
4 38 0.42 0.18
4 39 0.44 0.16
4 40 0.24 0.15
4 41 0.5 0.14
4 42 0.66 0.2
4 43 0.56 0.21
4 44 0.52 0.1
4 45 0.72 0.24
4 46 0.37 0.04
4 47 0.42 0.14
4 48 0.62 0.12
4 49 0.56 0.27
5 6 0.6 0.26
5 7 0.38 0.21
5 8 0.54 0.23
5 9 0.54 0.26
5 10 0.5 0.19
5 11 0.76 0.26
5 12 0.49 0.29
5 13 0.81 0.21
5 14 0.6 0.22
5 15 0.52 0.16
5 16 0.49 0.34
5 17 0.78 0.22
5 18 0.64 0.22
5 19 0.39 0.17
5 20 0.65 0.12
5 21 0.48 0.17
5 22 0.26 0.26
5 23 0.2 0.16
5 24 0.48 0.21
5 25 0.44 0.16
5 26 0.63 0.21
5 27 0.52 0.2
5 28 0.68 0.3
5 29 0.63 0.25
5 30 0.46 0.25
5 31 0.56 0.28
5 32 0.68 0.23
5 33 0.67 0.16
5 34 0.5 0.26
5 35 0.56 0.24
5 36 0.68 0.33
5 37 0.52 0.22
5 38 0.7 0.26
5 39 0.71 0.22
5 40 0.72 0.16
5 41 0.54 0.22
5 42 0.71 0.28
5 43 0.47 0.24
5 44 0.59 0.19
5 45 0.62 0.28
5 46 0.34 0.13
5 47 0.56 0.24
5 48 0.47 0.09
5 49 0.58 0.37
6 7 0.22 0.13
6 8 0.52 0.04
6 9 0.5 0.22
6 10 0.4 0.08
6 11 0.42 0.24
6 12 0.39 0.31
6 13 0.7 0.15
6 14 0.6 0.16
6 15 0.59 0.14
6 16 0.7 0.38
6 17 0.6 0.2
6 18 0.26 0.16
6 19 0.64 0.18
6 20 0.56 0.15
6 21 0.48 0.26
6 22 0.69 0.14
6 23 0.68 0.22
6 24 0.5 0.22
6 25 0.6 0.18
6 26 0.53 0.15
6 27 0.56 0.18
6 28 0.66 0.25
6 29 0.76 0.26
6 30 0.52 0.1
6 31 0.72 0.26
6 32 0.53 0.12
6 33 0.59 0.2
6 34 0.61 0.14
6 35 0.48 0.08
6 36 0.44 0.22
6 37 0.62 0.26
6 38 0.53 0.22
6 39 0.58 0.18
6 40 0.12 0.1
6 41 0.38 0.16
6 42 0.72 0.16
6 43 0.53 0.22
6 44 0.54 0.31
6 45 0.66 0.26
6 46 0.63 0.29
6 47 0.3 0.16
6 48 0.56 0.2
6 49 0.64 0.26
7 8 0.58 0.17
7 9 0.6 0.2
7 10 0.62 0.21
7 11 0.64 0.32
7 12 0.5 0.32
7 13 0.51 0.22
7 14 0.55 0.18
7 15 0.59 0.27
7 16 0.58 0.36
7 17 0.72 0.3
7 18 0.26 0.24
7 19 0.52 0.25
7 20 0.53 0.26
7 21 0.63 0.16
7 22 0.47 0.26
7 23 0.48 0.24
7 24 0.64 0.32
7 25 0.74 0.28
7 26 0.67 0.22
7 27 0.68 0.26
7 28 0.5 0.29
7 29 0.66 0.3
7 30 0.5 0.23
7 31 0.77 0.27
7 32 0.66 0.21
7 33 0.53 0.22
7 34 0.64 0.12
7 35 0.7 0.18
7 36 0.66 0.22
7 37 0.44 0.24
7 38 0.49 0.28
7 39 0.36 0.24
7 40 0.34 0.23
7 41 0.6 0.18
7 42 0.64 0.24
7 43 0.48 0.3
7 44 0.76 0.24
7 45 0.48 0.36
7 46 0.72 0.3
7 47 0.52 0.26
7 48 0.74 0.24
7 49 0.49 0.39
8 9 0.56 0.18
8 10 0.59 0.04
8 11 0.54 0.23
8 12 0.51 0.27
8 13 0.5 0.13
8 14 0.55 0.12
8 15 0.5 0.18
8 16 0.52 0.34
8 17 0.5 0.16
8 18 0.54 0.18
8 19 0.4 0.14
8 20 0.38 0.11
8 21 0.34 0.24
8 22 0.36 0.1
8 23 0.38 0.18
8 24 0.72 0.18
8 25 0.56 0.15
8 26 0.53 0.13
8 27 0.46 0.16
8 28 0.32 0.21
8 29 0.64 0.22
8 30 0.08 0.06
8 31 0.38 0.22
8 32 0.54 0.08
8 33 0.43 0.2
8 34 0.44 0.1
8 35 0.38 0.04
8 36 0.4 0.18
8 37 0.66 0.22
8 38 0.6 0.18
8 39 0.45 0.14
8 40 0.4 0.14
8 41 0.64 0.12
8 42 0.52 0.18
8 43 0.56 0.2
8 44 0.56 0.31
8 45 0.5 0.22
8 46 0.46 0.25
8 47 0.24 0.12
8 48 0.7 0.16
8 49 0.6 0.22
9 10 0.66 0.14
9 11 0.73 0.2
9 12 0.56 0.17
9 13 0.66 0.16
9 14 0.5 0.12
9 15 0.68 0.14
9 16 0.63 0.34
9 17 0.76 0.17
9 18 0.76 0.2
9 19 0.7 0.2
9 20 0.68 0.14
9 21 0.58 0.22
9 22 0.62 0.25
9 23 0.54 0.12
9 24 0.68 0.17
9 25 0.66 0.1
9 26 0.63 0.16
9 27 0.52 0.06
9 28 0.48 0.16
9 29 0.58 0.2
9 30 0.64 0.24
9 31 0.71 0.12
9 32 0.26 0.16
9 33 0.62 0.17
9 34 0.78 0.24
9 35 0.79 0.18
9 36 0.42 0.2
9 37 0.48 0.04
9 38 0.4 0.26
9 39 0.54 0.04
9 40 0.38 0.14
9 41 0.6 0.12
9 42 0.7 0.08
9 43 0.74 0.1
9 44 0.82 0.16
9 45 0.78 0.24
9 46 0.61 0.16
9 47 0.56 0.22
9 48 0.55 0.24
9 49 0.62 0.26
10 11 0.36 0.22
10 12 0.59 0.23
10 13 0.46 0.09
10 14 0.59 0.08
10 15 0.68 0.14
10 16 0.62 0.37
10 17 0.91 0.2
10 18 0.51 0.14
10 19 0.58 0.18
10 20 0.39 0.07
10 21 0.78 0.2
10 22 0.65 0.14
10 23 0.7 0.14
10 24 0.38 0.22
10 25 0.79 0.11
10 26 0.65 0.09
10 27 0.6 0.12
10 28 0.79 0.22
10 29 0.75 0.2
10 30 0.51 0.1
10 31 0.47 0.18
10 32 0.69 0.04
10 33 0.64 0.17
10 34 0.67 0.14
10 35 0.83 0.08
10 36 0.62 0.14
10 37 0.79 0.18
10 38 0.53 0.14
10 39 0.3 0.1
10 40 0.32 0.1
10 41 0.58 0.08
10 42 0.68 0.14
10 43 0.53 0.16
10 44 0.7 0.3
10 45 0.65 0.23
10 46 0.42 0.26
10 47 0.5 0.16
10 48 0.29 0.12
10 49 0.42 0.18
11 12 0.63 0.26
11 13 0.64 0.16
11 14 0.23 0.14
11 15 0.74 0.21
11 16 0.75 0.34
11 17 0.68 0.22
11 18 0.45 0.11
11 19 0.62 0.22
11 20 0.62 0.22
11 21 0.42 0.27
11 22 0.76 0.21
11 23 0.7 0.2
11 24 0.73 0.05
11 25 0.6 0.18
11 26 0.76 0.16
11 27 0.24 0.14
11 28 0.56 0.22
11 29 0.61 0.25
11 30 0.62 0.17
11 31 0.83 0.21
11 32 0.71 0.18
11 33 0.35 0.22
11 34 0.44 0.26
11 35 0.57 0.26
11 36 0.58 0.28
11 37 0.56 0.23
11 38 0.43 0.22
11 39 0.56 0.16
11 40 0.54 0.17
11 41 0.5 0.14
11 42 0.62 0.16
11 43 0.55 0.16
11 44 0.56 0.19
11 45 0.61 0.3
11 46 0.78 0.13
11 47 0.54 0.25
11 48 0.65 0.29
11 49 0.46 0.11
12 13 0.6 0.25
12 14 0.4 0.24
12 15 0.7 0.23
12 16 0.53 0.39
12 17 0.65 0.26
12 18 0.42 0.28
12 19 0.25 0.13
12 20 0.72 0.22
12 21 0.68 0.25
12 22 0.46 0.18
12 23 0.63 0.2
12 24 0.36 0.21
12 25 0.48 0.18
12 26 0.67 0.25
12 27 0.67 0.14
12 28 0.52 0.24
12 29 0.49 0.3
12 30 0.57 0.21
12 31 0.41 0.05
12 32 0.3 0.2
12 33 0.52 0.27
12 34 0.38 0.34
12 35 0.72 0.28
12 36 0.59 0.3
12 37 0.62 0.21
12 38 0.22 0.1
12 39 0.62 0.13
12 40 0.27 0.22
12 41 0.53 0.24
12 42 0.5 0.25
12 43 0.32 0.18
12 44 0.7 0.19
12 45 0.49 0.25
12 46 0.58 0.25
12 47 0.45 0.3
12 48 0.44 0.2
12 49 0.61 0.36
13 14 0.58 0.08
13 15 0.73 0.09
13 16 0.82 0.31
13 17 0.78 0.23
13 18 0.68 0.05
13 19 0.59 0.27
13 20 0.62 0.16
13 21 0.59 0.21
13 22 0.61 0.23
13 23 0.62 0.14
13 24 0.64 0.21
13 25 0.57 0.17
13 26 0.56 0.0
13 27 0.4 0.13
13 28 0.65 0.23
13 29 0.64 0.2
13 30 0.54 0.19
13 31 0.38 0.2
13 32 0.64 0.05
13 33 0.51 0.15
13 34 0.51 0.1
13 35 0.6 0.13
13 36 0.58 0.15
13 37 0.76 0.2
13 38 0.38 0.15
13 39 0.73 0.12
13 40 0.58 0.05
13 41 0.36 0.08
13 42 0.7 0.14
13 43 0.81 0.17
13 44 0.41 0.27
13 45 0.68 0.14
13 46 0.56 0.21
13 47 0.68 0.13
13 48 0.46 0.21
13 49 0.61 0.26
14 15 0.52 0.15
14 16 0.62 0.3
14 17 0.63 0.19
14 18 0.51 0.13
14 19 0.48 0.24
14 20 0.39 0.15
14 21 0.44 0.15
14 22 0.53 0.22
14 23 0.59 0.06
14 24 0.55 0.14
14 25 0.46 0.14
14 26 0.53 0.08
14 27 0.47 0.1
14 28 0.49 0.2
14 29 0.57 0.12
14 30 0.63 0.18
14 31 0.72 0.19
14 32 0.48 0.04
14 33 0.12 0.09
14 34 0.64 0.18
14 35 0.59 0.12
14 36 0.58 0.14
14 37 0.76 0.16
14 38 0.2 0.14
14 39 0.42 0.12
14 40 0.61 0.13
14 41 0.65 0.0
14 42 0.56 0.06
14 43 0.32 0.14
14 44 0.72 0.24
14 45 0.38 0.2
14 46 0.79 0.18
14 47 0.57 0.12
14 48 0.7 0.16
14 49 0.59 0.22
15 16 0.62 0.36
15 17 0.48 0.16
15 18 0.33 0.1
15 19 0.55 0.21
15 20 0.32 0.12
15 21 0.44 0.12
15 22 0.59 0.28
15 23 0.36 0.16
15 24 0.81 0.23
15 25 0.58 0.08
15 26 0.74 0.09
15 27 0.74 0.12
15 28 0.66 0.22
15 29 0.58 0.27
15 30 0.42 0.24
15 31 0.73 0.18
15 32 0.44 0.14
15 33 0.52 0.06
15 34 0.54 0.16
15 35 0.88 0.22
15 36 0.41 0.24
15 37 0.52 0.17
15 38 0.72 0.24
15 39 0.55 0.1
15 40 0.64 0.04
15 41 0.58 0.15
15 42 0.82 0.21
15 43 0.62 0.16
15 44 0.32 0.21
15 45 0.58 0.23
15 46 0.66 0.15
15 47 0.46 0.12
15 48 0.7 0.13
15 49 0.36 0.28
16 17 0.37 0.32
16 18 0.66 0.26
16 19 0.7 0.36
16 20 0.5 0.3
16 21 0.48 0.33
16 22 0.58 0.24
16 23 0.29 0.24
16 24 0.63 0.39
16 25 0.48 0.34
16 26 0.67 0.31
16 27 0.83 0.3
16 28 0.69 0.35
16 29 0.56 0.22
16 30 0.6 0.28
16 31 0.6 0.34
16 32 0.6 0.34
16 33 0.6 0.32
16 34 0.34 0.33
16 35 0.52 0.32
16 36 0.49 0.43
16 37 0.48 0.38
16 38 0.66 0.4
16 39 0.52 0.32
16 40 0.58 0.32
16 41 0.63 0.3
16 42 0.33 0.28
16 43 0.6 0.34
16 44 0.78 0.36
16 45 0.34 0.32
16 46 0.64 0.34
16 47 0.74 0.39
16 48 0.49 0.25
16 49 0.29 0.26
17 18 0.64 0.18
17 19 0.48 0.27
17 20 0.72 0.18
17 21 0.38 0.15
17 22 0.53 0.26
17 23 0.66 0.24
17 24 0.59 0.17
17 25 0.5 0.14
17 26 0.74 0.23
17 27 0.86 0.18
17 28 0.38 0.28
17 29 0.55 0.21
17 30 0.42 0.22
17 31 0.44 0.21
17 32 0.5 0.2
17 33 0.74 0.1
17 34 0.32 0.18
17 35 0.48 0.12
17 36 0.78 0.28
17 37 0.67 0.21
17 38 0.43 0.23
17 39 0.69 0.2
17 40 0.65 0.2
17 41 0.72 0.19
17 42 0.7 0.25
17 43 0.64 0.22
17 44 0.76 0.15
17 45 0.7 0.19
17 46 0.52 0.09
17 47 0.64 0.19
17 48 0.7 0.17
17 49 0.66 0.32
18 19 0.64 0.28
18 20 0.65 0.21
18 21 0.37 0.22
18 22 0.68 0.28
18 23 0.58 0.15
18 24 0.66 0.16
18 25 0.52 0.18
18 26 0.41 0.05
18 27 0.56 0.14
18 28 0.54 0.24
18 29 0.5 0.17
18 30 0.62 0.24
18 31 0.6 0.23
18 32 0.72 0.1
18 33 0.63 0.16
18 34 0.66 0.15
18 35 0.74 0.18
18 36 0.52 0.2
18 37 0.68 0.24
18 38 0.64 0.2
18 39 0.61 0.16
18 40 0.38 0.06
18 41 0.62 0.13
18 42 0.62 0.19
18 43 0.73 0.18
18 44 0.65 0.22
18 45 0.53 0.19
18 46 0.88 0.16
18 47 0.56 0.14
18 48 0.64 0.21
18 49 0.56 0.22
19 20 0.48 0.22
19 21 0.68 0.12
19 22 0.49 0.12
19 23 0.56 0.2
19 24 0.32 0.17
19 25 0.38 0.18
19 26 0.44 0.27
19 27 0.76 0.14
19 28 0.62 0.16
19 29 0.24 0.22
19 30 0.32 0.08
19 31 0.66 0.12
19 32 0.55 0.22
19 33 0.6 0.18
19 34 0.63 0.24
19 35 0.56 0.18
19 36 0.72 0.19
19 37 0.77 0.24
19 38 0.34 0.23
19 39 0.66 0.16
19 40 0.52 0.22
19 41 0.74 0.24
19 42 0.62 0.28
19 43 0.28 0.1
19 44 0.68 0.26
19 45 0.6 0.24
19 46 0.68 0.25
19 47 0.5 0.26
19 48 0.56 0.14
19 49 0.64 0.31
20 21 0.52 0.24
20 22 0.58 0.2
20 23 0.6 0.14
20 24 0.75 0.27
20 25 0.45 0.04
20 26 0.7 0.16
20 27 0.52 0.08
20 28 0.64 0.18
20 29 0.42 0.27
20 30 0.3 0.16
20 31 0.52 0.17
20 32 0.42 0.11
20 33 0.51 0.18
20 34 0.5 0.14
20 35 0.6 0.15
20 36 0.6 0.21
20 37 0.54 0.18
20 38 0.52 0.14
20 39 0.69 0.1
20 40 0.52 0.16
20 41 0.26 0.15
20 42 0.5 0.21
20 43 0.6 0.12
20 44 0.44 0.24
20 45 0.26 0.16
20 46 0.6 0.21
20 47 0.52 0.23
20 48 0.68 0.19
20 49 0.51 0.25
21 22 0.69 0.24
21 23 0.28 0.21
21 24 0.7 0.22
21 25 0.42 0.2
21 26 0.51 0.21
21 27 0.6 0.24
21 28 0.59 0.24
21 29 0.8 0.26
21 30 0.42 0.2
21 31 0.72 0.24
21 32 0.7 0.19
21 33 0.36 0.06
21 34 0.38 0.16
21 35 0.48 0.22
21 36 0.44 0.26
21 37 0.62 0.2
21 38 0.46 0.22
21 39 0.5 0.22
21 40 0.6 0.16
21 41 0.58 0.15
21 42 0.42 0.2
21 43 0.48 0.22
21 44 0.39 0.2
21 45 0.62 0.3
21 46 0.64 0.14
21 47 0.58 0.15
21 48 0.73 0.08
21 49 0.6 0.28
22 23 0.46 0.26
22 24 0.59 0.16
22 25 0.44 0.24
22 26 0.56 0.23
22 27 0.53 0.21
22 28 0.54 0.11
22 29 0.73 0.32
22 30 0.28 0.04
22 31 0.3 0.13
22 32 0.62 0.18
22 33 0.46 0.3
22 34 0.46 0.2
22 35 0.66 0.14
22 36 0.66 0.28
22 37 0.7 0.29
22 38 0.44 0.16
22 39 0.56 0.21
22 40 0.62 0.24
22 41 0.75 0.22
22 42 0.45 0.22
22 43 0.21 0.17
22 44 0.4 0.27
22 45 0.36 0.12
22 46 0.6 0.24
22 47 0.5 0.22
22 48 0.68 0.26
22 49 0.56 0.26
23 24 0.48 0.2
23 25 0.64 0.1
23 26 0.43 0.14
23 27 0.6 0.06
23 28 0.69 0.16
23 29 0.7 0.18
23 30 0.46 0.24
23 31 0.76 0.15
23 32 0.54 0.1
23 33 0.47 0.15
23 34 0.52 0.24
23 35 0.76 0.18
23 36 0.72 0.2
23 37 0.35 0.16
23 38 0.74 0.2
23 39 0.63 0.08
23 40 0.56 0.12
23 41 0.34 0.06
23 42 0.56 0.12
23 43 0.54 0.1
23 44 0.59 0.24
23 45 0.63 0.14
23 46 0.54 0.18
23 47 0.62 0.18
23 48 0.45 0.22
23 49 0.58 0.28
24 25 0.64 0.23
24 26 0.47 0.21
24 27 0.62 0.19
24 28 0.74 0.27
24 29 0.56 0.2
24 30 0.64 0.12
24 31 0.56 0.16
24 32 0.54 0.18
24 33 0.52 0.17
24 34 0.56 0.27
24 35 0.45 0.22
24 36 0.4 0.28
24 37 0.52 0.18
24 38 0.58 0.18
24 39 0.68 0.21
24 40 0.6 0.22
24 41 0.62 0.14
24 42 0.3 0.2
24 43 0.6 0.21
24 44 0.62 0.14
24 45 0.78 0.28
24 46 0.7 0.08
24 47 0.51 0.26
24 48 0.67 0.24
24 49 0.6 0.16
25 26 0.82 0.17
25 27 0.72 0.04
25 28 0.24 0.14
25 29 0.6 0.26
25 30 0.64 0.2
25 31 0.74 0.13
25 32 0.46 0.15
25 33 0.58 0.14
25 34 0.78 0.18
25 35 0.44 0.19
25 36 0.64 0.25
25 37 0.39 0.14
25 38 0.26 0.18
25 39 0.7 0.06
25 40 0.48 0.12
25 41 0.46 0.14
25 42 0.36 0.18
25 43 0.57 0.08
25 44 0.47 0.23
25 45 0.66 0.2
25 46 0.54 0.17
25 47 0.63 0.2
25 48 0.76 0.21
25 49 0.64 0.26
26 27 0.68 0.13
26 28 0.59 0.23
26 29 0.54 0.2
26 30 0.45 0.19
26 31 0.68 0.2
26 32 0.37 0.05
26 33 0.65 0.15
26 34 0.87 0.1
26 35 0.68 0.13
26 36 0.71 0.15
26 37 0.56 0.2
26 38 0.66 0.15
26 39 0.73 0.12
26 40 0.41 0.05
26 41 0.44 0.08
26 42 0.77 0.14
26 43 0.67 0.17
26 44 0.9 0.27
26 45 0.62 0.14
26 46 0.76 0.21
26 47 0.59 0.13
26 48 0.66 0.21
26 49 0.71 0.26
27 28 0.48 0.1
27 29 0.82 0.22
27 30 0.48 0.22
27 31 0.62 0.09
27 32 0.49 0.14
27 33 0.59 0.18
27 34 0.68 0.22
27 35 0.76 0.2
27 36 0.34 0.24
27 37 0.75 0.1
27 38 0.67 0.22
27 39 0.44 0.02
27 40 0.5 0.08
27 41 0.26 0.1
27 42 0.6 0.14
27 43 0.48 0.04
27 44 0.58 0.22
27 45 0.78 0.2
27 46 0.72 0.2
27 47 0.68 0.16
27 48 0.66 0.24
27 49 0.54 0.22
28 29 0.76 0.32
28 30 0.4 0.15
28 31 0.5 0.19
28 32 0.22 0.18
28 33 0.37 0.27
28 34 0.54 0.31
28 35 0.68 0.25
28 36 0.56 0.26
28 37 0.34 0.2
28 38 0.44 0.22
28 39 0.58 0.12
28 40 0.54 0.18
28 41 0.56 0.2
28 42 0.6 0.21
28 43 0.42 0.06
28 44 0.71 0.32
28 45 0.63 0.14
28 46 0.42 0.26
28 47 0.56 0.26
28 48 0.79 0.3
28 49 0.4 0.15
29 30 0.56 0.28
29 31 0.87 0.31
29 32 0.72 0.16
29 33 0.66 0.21
29 34 0.64 0.24
29 35 0.32 0.18
29 36 0.69 0.26
29 37 0.6 0.24
29 38 0.37 0.2
29 39 0.62 0.24
29 40 0.71 0.23
29 41 0.58 0.12
29 42 0.76 0.12
29 43 0.52 0.26
29 44 0.54 0.18
29 45 0.6 0.32
29 46 0.49 0.12
29 47 0.53 0.17
29 48 0.65 0.28
29 49 0.57 0.3
30 31 0.46 0.17
30 32 0.62 0.14
30 33 0.51 0.26
30 34 0.42 0.16
30 35 0.46 0.1
30 36 0.46 0.24
30 37 0.72 0.28
30 38 0.59 0.2
30 39 0.5 0.2
30 40 0.4 0.2
30 41 0.56 0.18
30 42 0.44 0.24
30 43 0.48 0.18
30 44 0.64 0.26
30 45 0.56 0.16
30 46 0.54 0.2
30 47 0.22 0.18
30 48 0.68 0.22
30 49 0.66 0.28
31 32 0.71 0.22
31 33 0.76 0.24
31 34 0.69 0.3
31 35 0.58 0.26
31 36 0.48 0.31
31 37 0.51 0.16
31 38 0.62 0.15
31 39 0.5 0.08
31 40 0.6 0.17
31 41 0.74 0.19
31 42 0.48 0.2
31 43 0.51 0.13
31 44 0.54 0.14
31 45 0.55 0.22
31 46 0.84 0.2
31 47 0.56 0.25
31 48 0.38 0.24
31 49 0.68 0.31
32 33 0.36 0.13
32 34 0.56 0.14
32 35 0.55 0.08
32 36 0.34 0.1
32 37 0.56 0.2
32 38 0.52 0.1
32 39 0.72 0.14
32 40 0.41 0.1
32 41 0.34 0.04
32 42 0.56 0.1
32 43 0.48 0.18
32 44 0.72 0.28
32 45 0.62 0.19
32 46 0.46 0.22
32 47 0.4 0.16
32 48 0.7 0.16
32 49 0.52 0.22
33 34 0.63 0.1
33 35 0.47 0.16
33 36 0.7 0.2
33 37 0.7 0.14
33 38 0.32 0.23
33 39 0.54 0.16
33 40 0.58 0.1
33 41 0.65 0.09
33 42 0.68 0.15
33 43 0.44 0.22
33 44 0.64 0.15
33 45 0.26 0.24
33 46 0.68 0.09
33 47 0.66 0.09
33 48 0.76 0.07
33 49 0.68 0.22
34 35 0.42 0.06
34 36 0.76 0.1
34 37 0.78 0.24
34 38 0.6 0.24
34 39 0.37 0.22
34 40 0.51 0.15
34 41 0.68 0.18
34 42 0.64 0.24
34 43 0.67 0.26
34 44 0.64 0.25
34 45 0.39 0.24
34 46 0.84 0.19
34 47 0.4 0.14
34 48 0.48 0.17
34 49 0.56 0.3
35 36 0.56 0.16
35 37 0.52 0.22
35 38 0.69 0.18
35 39 0.7 0.18
35 40 0.6 0.18
35 41 0.86 0.12
35 42 0.75 0.18
35 43 0.66 0.24
35 44 0.73 0.27
35 45 0.73 0.26
35 46 0.46 0.21
35 47 0.62 0.16
35 48 0.76 0.2
35 49 0.7 0.26
36 37 0.68 0.24
36 38 0.38 0.2
36 39 0.78 0.24
36 40 0.32 0.2
36 41 0.58 0.14
36 42 0.58 0.2
36 43 0.59 0.28
36 44 0.73 0.26
36 45 0.72 0.29
36 46 0.64 0.29
36 47 0.5 0.24
36 48 0.52 0.26
36 49 0.2 0.2
37 38 0.65 0.3
37 39 0.69 0.08
37 40 0.5 0.18
37 41 0.69 0.16
37 42 0.75 0.12
37 43 0.76 0.14
37 44 0.7 0.12
37 45 0.59 0.28
37 46 0.52 0.18
37 47 0.52 0.23
37 48 0.5 0.21
37 49 0.54 0.26
38 39 0.62 0.23
38 40 0.49 0.2
38 41 0.72 0.14
38 42 0.44 0.2
38 43 0.52 0.26
38 44 0.61 0.28
38 45 0.56 0.15
38 46 0.59 0.22
38 47 0.37 0.26
38 48 0.5 0.24
38 49 0.39 0.29
39 40 0.62 0.1
39 41 0.64 0.12
39 42 0.72 0.12
39 43 0.42 0.06
39 44 0.64 0.2
39 45 0.74 0.22
39 46 0.72 0.18
39 47 0.69 0.18
39 48 0.59 0.22
39 49 0.64 0.24
40 41 0.26 0.13
40 42 0.6 0.19
40 43 0.59 0.12
40 44 0.61 0.25
40 45 0.56 0.19
40 46 0.61 0.19
40 47 0.18 0.08
40 48 0.61 0.17
40 49 0.52 0.28
41 42 0.34 0.06
41 43 0.54 0.14
41 44 0.66 0.24
41 45 0.52 0.2
41 46 0.56 0.18
41 47 0.44 0.12
41 48 0.66 0.16
41 49 0.54 0.22
42 43 0.66 0.18
42 44 0.81 0.24
42 45 0.67 0.26
42 46 0.62 0.24
42 47 0.64 0.18
42 48 0.54 0.22
42 49 0.58 0.18
43 44 0.4 0.26
43 45 0.54 0.2
43 46 0.68 0.24
43 47 0.7 0.2
43 48 0.76 0.24
43 49 0.39 0.21
44 45 0.54 0.22
44 46 0.34 0.06
44 47 0.44 0.24
44 48 0.72 0.22
44 49 0.64 0.3
45 46 0.68 0.28
45 47 0.74 0.27
45 48 0.7 0.31
45 49 0.63 0.29
46 47 0.64 0.18
46 48 0.71 0.16
46 49 0.76 0.24
47 48 0.46 0.16
47 49 0.52 0.31
48 49 0.6 0.29
